15	2	2
6862	6862	
54	792	794	
816	985	1012	
856	825	1052	
530	859	1053	
102	211	405	
891	777	881	
914	211	256	
83	974	1271	
481	129	215	
172	226	254	
603	42	67	
980	891	1208	
479	901	1519	
638	901	1177	
947	426	723	
